Maximize

66.0 b0 + 36.0 b1 + 18.5 b2.v0 + 18.5 b2.v1 + 18.5 b2.v2 + 18.5 b2.v3 + 42.0 b3 + 71.0 b4 + 51.5 b5.v0 + 51.5 b5.v1 + 49.5 b5.v2 + 36 b6.v0 + 36 b6.v1 + 92.5 b7.v0 + 92.5 b7.v1 + 166.0 b8 + 36.0 b9.v0 + 35.0 b9.v1 + 36.0 b9.v2 + 6 b10 + 18.5 b11 + 37.0 b12 + 6 b13 + 68.0 b14 + 36.0 b15 + 36.0 b16 + 6 b17.v0 + 6 b17.v1 + 13.5 b18 + 19.5 b19.v0 + 19.5 b19.v1 + 6 b20 + 52.5 b21 + 6096.5 b22 + 18.5 b23.v0 + 15.5 b23.v1 + 0 b24 + 12.5 x6_0.m + 12.5 x6_1.m + 12.5 dr6_0.m + 12.5 dr6_1.m + 12.5 dr6_2.m + 12.5 dr6_3.m + 12.5 dr6_4.m + 12.5 dr6_5.m


Subject to

\ === tcfg constraints ===
dSta_0 = 1
b0 - dSta_0 = 0
b0 - d0_16 = 0
b1 - d19_1 = 0
b1 - d1_2 - d1_10 = 0
b2 - d1_2 - d10_2 - d13_2 - d15_2 = 0
b2 - d2_9 = 0
b3 - d15_3 = 0
b3 - d3_4 - d3_11 = 0
b4 - d3_4 = 0
b4 - d4_5 - d4_12 = 0
b5 - d4_5 - d12_5 - d14_5 = 0
b5 - d5_7 - d5_6 = 0
b6 - d5_6 - d6_6 = 0
b6 - d6_6 - d6_7 = 0
b7 - d5_7 - d6_7 = 0
b7 - d7_21 = 0
b8 - d23_8 = 0
b8 - d8_9 = 0
b9 - d2_9 - d8_9 - d11_9 = 0
b10 - d1_10 = 0
b10 - d10_2 - d10_13 = 0
b11 - d3_11 = 0
b11 - d11_9 = 0
b12 - d4_12 = 0
b12 - d12_5 - d12_14 = 0
b13 - d10_13 = 0
b13 - d13_2 - d13_15 = 0
b14 - d12_14 = 0
b14 - d14_5 = 0
b15 - d13_15 = 0
b15 - d15_3 - d15_2 = 0
b16 - d0_16 = 0
b16 - d16_17 - d16_20 = 0
b17 - d16_17 - d20_17 = 0
b17 - d17_19 = 0
b18 - d20_18 = 0
b18 - d18_19 = 0
b19 - d17_19 - d18_19 = 0
b19 - d19_1 = 0
b20 - d16_20 = 0
b20 - d20_18 - d20_17 = 0
b21 - d7_21 = 0
b21 - d21_23 - d21_24 = 0
b22 - d24_22 = 0
b22 - d22_23 = 0
b23 - d21_23 - d22_23 = 0
b23 - d23_8 = 0
b24 - d21_24 = 0
b24 - d24_22 = 0


\ === header constraints ===
b6 - 8 d5_6 <= 0


\ === context constraints ===
b2 - b2.v0 - b2.v1 - b2.v2 - b2.v3 = 0
b2.v0 - d1_2 = 0
b2.v1 - d10_2 = 0
b2.v2 - d13_2 = 0
b2.v3 - d15_2 = 0
b5 - b5.v0 - b5.v1 - b5.v2 = 0
b5.v0 - d4_5 = 0
b5.v1 - d12_5 = 0
b5.v2 - d14_5 = 0
b6 - b6.v0 - b6.v1 = 0
b6.v0 - d5_6 = 0
b6.v1 - d6_6 = 0
b7 - b7.v0 - b7.v1 = 0
b7.v0 - d5_7 = 0
b7.v1 - d6_7 = 0
b9 - b9.v0 - b9.v1 - b9.v2 = 0
b9.v0 - d2_9 = 0
b9.v1 - d8_9 = 0
b9.v2 - d11_9 = 0
b17 - b17.v0 - b17.v1 = 0
b17.v0 - d16_17 = 0
b17.v1 - d20_17 = 0
b19 - b19.v0 - b19.v1 = 0
b19.v0 - d17_19 = 0
b19.v1 - d18_19 = 0
b23 - b23.v0 - b23.v1 = 0
b23.v0 - d21_23 = 0
b23.v1 - d22_23 = 0


\ === inst cache constraints ===
b6 - x6_0.h - x6_0.m = 0
x6_0.m <= 1
b6 - x6_1.h - x6_1.m = 0
x6_1.m <= 1


\ === data cache constraints ===
b6 - dr6_0.h - dr6_0.m = 0
dr6_0.m <= 1
b6 - dr6_1.h - dr6_1.m = 0
dr6_1.m <= 1
b6 - dr6_2.h - dr6_2.m = 0
dr6_2.m <= 1
b6 - dr6_3.h - dr6_3.m = 0
dr6_3.m <= 1
b6 - dr6_4.h - dr6_4.m = 0
dr6_4.m <= 1
b6 - dr6_5.h - dr6_5.m = 0
dr6_5.m <= 1


Generals


b0
b1
b2
b2.v0
b2.v1
b2.v2
b2.v3
b3
b4
b5
b5.v0
b5.v1
b5.v2
b6
b6.v0
b6.v1
b7
b7.v0
b7.v1
b8
b9
b9.v0
b9.v1
b9.v2
b10
b11
b12
b13
b14
b15
b16
b17
b17.v0
b17.v1
b18
b19
b19.v0
b19.v1
b20
b21
b22
b23
b23.v0
b23.v1
b24
d0_16
d1_2
d1_10
d2_9
d3_4
d3_11
d4_5
d4_12
d5_6
d5_7
d6_6
d6_7
d7_21
d8_9
d10_2
d10_13
d11_9
d12_5
d12_14
d13_2
d13_15
d14_5
d15_2
d15_3
d16_17
d16_20
d17_19
d18_19
d19_1
d20_17
d20_18
d21_23
d21_24
d22_23
d23_8
d24_22
dSta_0
dr6_0.h
dr6_0.m
dr6_1.h
dr6_1.m
dr6_2.h
dr6_2.m
dr6_3.h
dr6_3.m
dr6_4.h
dr6_4.m
dr6_5.h
dr6_5.m
x6_0.h
x6_0.m
x6_1.h
x6_1.m


End
\ total cons: 123    total vars: 98
